NAME: rand_0/map1_72
TYPE: TSP
COMMENT: autogenerated using a wonderful map creator
DIMENSION: 96
EDGE_WEIGHT_TYPE: EUC_2D
NODE_COORD_SECTION
1 2.0 1.0
2 3.0 4.0
3 79.0 1.0
4 82.0 4.0
5 82.0 9.0
6 2.0 6.0
7 78.0 2.0
8 79.0 3.0
9 1.0 4.0
10 2.0 2.0
11 78.0 4.0
12 80.0 8.0
13 78.0 9.0
14 3.0 7.0
15 79.0 5.0
16 2.0 5.0
17 1.0 9.0
18 3.0 3.0
19 1.0 1.0
20 79.0 9.0
21 5.0 8.0
22 82.0 8.0
23 1.0 3.0
24 3.0 8.0
25 81.0 9.0
26 82.0 2.0
27 82.0 6.0
28 5.0 1.0
29 79.0 6.0
30 2.0 9.0
31 81.0 2.0
32 81.0 1.0
33 78.0 6.0
34 80.0 2.0
35 3.0 1.0
36 81.0 5.0
37 5.0 2.0
38 4.0 3.0
39 78.0 7.0
40 4.0 6.0
41 5.0 6.0
42 82.0 7.0
43 80.0 3.0
44 4.0 9.0
45 81.0 6.0
46 81.0 8.0
47 79.0 7.0
48 2.0 3.0
49 64.0 5.0
50 42.0 2.0
51 66.0 5.0
52 15.0 5.0
53 72.0 2.0
54 70.0 2.0
55 8.0 2.0
56 65.0 8.0
57 43.0 5.0
58 49.0 2.0
59 16.0 8.0
60 53.0 2.0
61 31.0 8.0
62 22.0 5.0
63 36.0 4.0
64 20.0 8.0
65 75.0 5.0
66 68.0 8.0
67 13.0 5.0
68 26.0 2.0
69 25.0 4.0
70 17.0 2.0
71 74.0 8.0
72 41.0 5.0
73 63.0 8.0
74 54.0 5.0
75 45.0 2.0
76 12.0 8.0
77 69.0 5.0
78 62.0 2.0
79 18.0 2.0
80 73.0 2.0
81 53.0 8.0
82 29.0 8.0
83 14.0 7.0
84 58.0 7.0
85 69.0 7.0
86 42.0 8.0
87 35.0 2.0
88 24.0 2.0
89 46.0 8.0
90 48.0 5.0
91 39.0 2.0
92 37.0 2.0
93 70.0 8.0
94 59.0 8.0
95 8.0 8.0
96 19.0 8.0
97 21.0 8.0
98 58.0 2.0
99 71.0 2.0
100 29.0 5.0
101 20.0 2.0
102 22.0 8.0
103 55.0 5.0
104 58.0 4.0
105 44.0 2.0
106 68.0 5.0
107 66.0 8.0
108 72.0 5.0
109 50.0 2.0
110 28.0 8.0
111 17.0 8.0
112 19.0 5.0
113 32.0 8.0
114 12.0 2.0
115 67.0 2.0
116 58.0 8.0
117 69.0 8.0
118 45.0 8.0
119 34.0 8.0
120 49.0 5.0
START_DEPOT_SECTION
1
2
3
4
5
6
7
8
9
10
11
12
13
14
15
16
17
18
19
20
21
22
23
24
-1
END_DEPOT_SECTION
25
26
27
28
29
30
31
32
33
34
35
36
37
38
39
40
41
42
43
44
45
46
47
48
-1
EOF
